2411633180079371903504,10,1,2,04,13,1,2,07,12,1,2,012,8,1,2,04,10,1,2,013,13,1,2,015,5,1,2,012,13,1,2,011,9,1,2,06,9,1,2,012,5,1,2,06,15,1,2,02,7,1,2,014,14,1,2,04,6,1,2,02,11,1,2,01,10,1,2,012,7,1,2,06,9,1,2,012,10,1,2,03,15,1,2,06,1,1,2,04,8,1,2,01,1,1,2,012,13,1,2,05,12,1,2,012,8,1,2,04,14,1,2,07,9,1,2,05,15,1,2,015,7,1,2,04,5,1,2,06,8,1,2,013,14,1,2,015,8,1,2,03,6,1,2,09,15,1,2,014,11,1,2,01,2,1,2,08,5,1,2,03,10,1,2,07,6,1,2,012,10,1,2,04,12,1,2,013,14,1,2,03,12,1,2,06,4,1,2,06,4,1,2,05,14,1,2,014,10,1,2,0